NAME : instance_6
COMMENT : Converted from simplified format
TYPE : CVRP
DIMENSION : 8
EDGE_WEIGHT_TYPE : EUC_2D
CAPACITY : 18
NODE_COORD_SECTION
1 0 0
2 82 9
3 11 42
4 78 5
5 83 76
6 48 54
7 99 23
8 31 44
DEMAND_SECTION
1 0
2 7
3 5
4 4
5 4
6 3
7 6
8 6
DEPOT_SECTION
1
EOF
